\ENCODING=ISO-8859-1
\Problem name: IloCplex

Minimize
 obj1: 1000000 λ0 + 1000000 λ1 + 1000000 λ2 + 1000000 λ3
       + 1000000 λ4 + 1000000 λ5 + 1000000 λ6 + 1000000 λ7
       + 1000000 λ8 + 1000000 λ9 + 1000000 λ10 + 1000000 λ11
       + 1000000 λ12 + 1000000 λ13 + 1000000 λ14 + 1000000 λ15
       + 1000000 λ16 + 1000000 λ17 + 1000000 λ18 + 1000000 λ19
       + 1000000 λ20 + 1000000 λ21 + 1000000 λ22 + 1000000 λ23
       + 1000000 λ24 + 1000000 λ25 + 1000000 λ26 + 1000000 λ27
       + 1000000 λ28 + 1000000 λ29 + 1000000 λ30 + 1000000 λ31
       + 1000000 λ32 + 1000000 λ33 + 1000000 λ34 + 1000000 λ35
       + 1000000 λ36 + 1000000 λ37 + 1000000 λ38 + 1000000 λ39
       + 1000000 λ40 + 1000000 λ41 + 1000000 λ42 + 1000000 λ43
       + 1000000 λ44 + 1000000 λ45 + 1000000 λ46 + 1000000 λ47
       + 1000000 λ48 + 1000000 λ49 + λ50 + λ51 + λ52 + λ53
       + λ54 + λ55 + λ56 + λ57 + λ58 + λ59 + λ60 + λ61
       + λ62 + λ63 + λ64 + λ65 + λ66 + λ67 + λ68 + λ69
       + λ70 + λ71 + λ72 + λ73 + λ74 + λ75 + λ76 + λ77
       + λ78 + λ79 + λ80 + λ81 + λ82 + λ83 + λ84 + λ85
       + λ86 + λ87 + λ88 + λ89 + λ90 + λ91 + λ92 + λ93
       + λ94 + λ95 + λ96 + λ97 + λ98 + λ99 + λ100
       + λ101 + λ102 + λ103 + λ104 + λ105 + λ106 + λ107
       + λ108 + λ109 + λ110 + λ111 + λ112 + λ113 + λ114
       + λ115 + λ116 + λ117 + λ118 + λ119 + λ120 + λ121
       + λ122 + λ123 + λ124 + λ125 + λ126
Subject To
 c1:  λ0 + λ117  = 1
 c2:  λ1 + λ118  = 1
 c3:  λ2 + λ116  = 1
 c4:  λ3 + λ115  = 1
 c5:  λ4 + λ114  = 1
 c6:  λ5 + λ113  = 1
 c7:  λ6 + λ111  = 1
 c8:  λ7 + λ112  = 1
 c9:  λ8 + λ109  = 1
 c10: λ9 + λ110  = 1
 c11: λ10 + λ108  = 1
 c12: λ11 + λ105  = 1
 c13: λ12 + λ107  = 1
 c14: λ13 + λ106  = 1
 c15: λ14 + λ104  = 1
 c16: λ15 + λ103  = 1
 c17: λ16 + λ100  = 1
 c18: λ17 + λ102  = 1
 c19: λ18 + λ101  = 1
 c20: λ19 + λ99  = 1
 c21: λ20 + λ98  = 1
 c22: λ21 + λ93 + λ97  = 1
 c23: λ22 + λ92 + λ95  = 1
 c24: λ23 + λ89 + λ91  = 1
 c25: λ24 + λ87 + λ88  = 1
 c26: λ25 + λ85 + λ86 + λ90  = 1
 c27: λ26 + λ81 + λ82  = 1
 c28: λ27 + λ83 + λ84  = 1
 c29: λ28 + λ78 + λ80  = 1
 c30: λ29 + λ77 + λ79 + λ96 + λ126  = 1
 c31: λ30 + λ75 + λ76 + λ94  = 1
 c32: λ31 + λ73 + λ74 + λ119 + λ124  = 1
 c33: λ32 + λ71 + λ72 + λ120 + λ121  = 1
 c34: λ33 + λ69 + λ70 + λ121 + λ122  = 1
 c35: λ34 + λ68 + λ70 + λ120 + λ123  = 1
 c36: λ35 + λ68 + λ69 + λ94  = 1
 c37: λ36 + λ66 + λ67 + λ71 + λ122 + λ123 + λ124  = 1
 c38: λ37 + λ63 + λ66 + λ72 + λ80  = 1
 c39: λ38 + λ59 + λ62 + λ63 + λ67 + λ82  = 1
 c40: λ39 + λ58 + λ59 + λ64 + λ75 + λ79  = 1
 c41: λ40 + λ55 + λ57 + λ64 + λ78 + λ81 + λ84  = 1
 c42: λ41 + λ57 + λ58 + λ76 + λ83  = 1
 c43: λ42 + λ55 + λ56 + λ60 + λ61 + λ65 + λ73 + λ125
      + λ126  = 1
 c44: λ43 + λ53 + λ54 + λ65 + λ87 + λ125  = 1
 c45: λ44 + λ51 + λ54 + λ56 + λ60 + λ62 + λ86  = 1
 c46: λ45 + λ52 + λ53 + λ60 + λ74 + λ90  = 1
 c47: λ46 + λ52 + λ53 + λ61 + λ62 + λ88 + λ96 + λ119
      + λ125  = 1
 c48: λ47 + λ50 + λ52 + λ54 + λ61 + λ85 + λ89  = 1
 c49: λ48 + λ50 + λ51 + λ56 + λ57 + λ59 + λ77 + λ91
      + λ93  = 1
 c50: λ49 + λ50 + λ51 + λ55 + λ58 + λ63 + λ77 + λ92
       = 1
End
